(set-logic LIA)
(synth-fun next ((water Int) (methane Int) (pump Bool) ) Int
	((Start Int) (Var Int) (StartBool Bool))
	((Start Int (
				 2
				 (ite StartBool Start Start)))

	(Var Int (
			 0
			 1
			 2
			 6
			 29
			 581
			 water
			 methane
			 (+ Var Var)						
			 (- Var Var)						
			 (* Var Var)))

	(StartBool Bool (
				 	 pump
					(= Var Var)						
					(>= Var Var)						
					(<= Var Var)						
					(and StartBool StartBool)			
					(or  StartBool StartBool)				
					(not StartBool)))))

(constraint (= (next 29 577 true ) 2))
(constraint (= (next 29 585 true ) 2))

(check-synth)
